21177.7
21177.7
21165.1
21165.1
21075.9
20760.4
20760.4
20620.7
20504.5
20477.3
20120.4
20120.4
20072.2
19981.8
19755.3
19755.3
19755.3
19610.6
19610.6
19585.8
19552.2
19494.8
19494.8
19494.8
19372.9
19337
19337
19337
19316.6
19156.4
19156.4
19147.5
19147.5
19028
18878.9
18878.9
18878.9
18664.5
18664.5
18664.5
18664.5
18664.5
18664.5
18561.5
18512
18512
18512
18512
18512
18326.3
18225.5
18225.5
18225.5
18225.5
18225.5
18225.5
18147.7
18147.7
18147.7
18147.7
17662.2
17662.2
17662.2
17662.2
17662.2
17584.4
17394
17394
17394
17394
17394
17394
17394
17394
17381.2
17381.2
17353.2
17319.6
17304.7
17300.3
17242
17242
17242
17202.7
17202.7
17105.2
17105.2
17105.2
17105.2
17105.2
17105.2
17105.2
17092.1
17092.1
17056.8
16965.5
16955.2
16953.8
16953.8
16912.6
